20
587 233 220
90 70 63
84 78 28
94 85 39
80 76 54
69 50 45
70 57 37
94 61 54
92 44 29
72 53 37
89 43 27
91 44 28
78 76 68
84 61 33
107 40 39
114 75 69
57 55 48
99 57 47
92 66 44
73 48 42
99 46 39
thpack7_9